0	378	458	0	200
1	256	391	0	200
2	198	440	0	200
3	54	376	0	200
4	200	382	0	200
5	487	288	0	200
6	109	133	0	200
7	496	149	0	200
8	424	55	0	200
9	369	495	0	200
10	267	343	0	200
11	221	131	0	200
12	135	332	0	200
13	480	75	0	200
14	373	258	0	200
15	311	442	0	200
16	195	213	0	200
17	391	158	0	200
18	151	81	0	200
19	417	84	0	200
20	298	447	0	200
21	143	361	0	200
22	321	447	0	200
23	446	318	0	200
24	419	26	0	200
